(declare-sort $$unsorted 0)
(declare-fun tptp.op ($$unsorted $$unsorted) $$unsorted)
(assert (forall ((X0 $$unsorted) (X1 $$unsorted) (X2 $$unsorted) (X3 $$unsorted)) (= (tptp.op X0 (tptp.op X1 X2)) (tptp.op (tptp.op X2 X0) X3))))
(assert (not (forall ((X0 $$unsorted) (X1 $$unsorted) (X2 $$unsorted) (X3 $$unsorted)) (= (tptp.op X0 (tptp.op X1 X2)) (tptp.op (tptp.op X3 X2) X1)))))
(set-info :filename Equation4543_implies_Equation4568)
(check-sat-assuming ( true ))
